; benchmark generated from python API
(set-info :status unknown)
(declare-datatypes ((RealState 0)) (((RMk1 (rval1 Real)) (RMk2 (rval2 Real)))))
 (assert
 (forall ((|v9:0| Real) )(exists ((|v8:1_st| RealState) (val!1420 Real) )(forall ((|v7:2| Real) )(exists ((|v6:3_st| RealState) (val!1421 Real) )(forall ((|v5:4| Real) )(exists ((|v4:5_st| RealState) (val!1422 Real) )(forall ((|v3:6| Real) )(exists ((|v2:7_st| RealState) (val!1423 Real) )(forall ((|v1:8| Real) )(exists ((|v0:9_st| RealState) (val!1424 Real) )(let ((?x314 (- 1.0)))
 (let ((?x811 (+ (+ (* (- 12.0) |v9:0|) (* (- 16.0) |v3:6|)) (* (- 16.0) (rval2 |v4:5_st|)))))
 (let ((?x769 (rval2 |v6:3_st|)))
 (let ((?x883 (* 16.0 ?x769)))
 (let (($x853 (and (<= (+ (+ (* 13.0 |v9:0|) (* 2.0 (rval2 |v4:5_st|))) ?x883) 0.0) (<= ?x811 ?x314))))
 (let ((?x359 (- 20.0)))
 (let ((?x680 (- 15.0)))
 (let ((?x1006 (* ?x680 |v1:8|)))
 (let (($x199 (<= (+ (+ (* 3.0 (rval2 |v0:9_st|)) (* 18.0 (rval2 |v0:9_st|))) ?x1006) ?x359)))
 (let ((?x331 (- 9.0)))
 (let ((?x161 (+ (+ (* 20.0 (rval2 |v8:1_st|)) (* (- 14.0) (rval2 |v4:5_st|))) (* (- 10.0) |v1:8|))))
 (let ((?x474 (- 16.0)))
 (let ((?x397 (+ (+ (* (- 5.0) |v9:0|) (* (- 6.0) (rval2 |v0:9_st|))) (* 11.0 |v3:6|))))
 (let ((?x303 (- 10.0)))
 (let (($x554 (<= (+ (+ (* 7.0 |v1:8|) (* 18.0 |v7:2|)) (* (- 14.0) |v1:8|)) ?x303)))
 (let ((?x296 (+ (+ (* (- 4.0) |v1:8|) (* ?x314 (rval2 |v0:9_st|))) (* 9.0 (rval2 |v2:7_st|)))))
 (let ((?x638 (+ (+ (* (- 18.0) (rval2 |v8:1_st|)) (* (- 14.0) |v7:2|)) (* 18.0 |v5:4|))))
 (let (($x1390 (or (or (and (<= ?x638 ?x359) (<= ?x296 ?x474)) (or $x554 (<= ?x397 ?x474))) (and (or (<= ?x161 ?x331) $x199) $x853))))
 (let (($x422 (<= (+ (+ (* 2.0 |v9:0|) (* 5.0 |v3:6|)) (* (- 19.0) |v7:2|)) 13.0)))
 (let (($x1309 (<= (+ (+ (* (- 3.0) (rval2 |v0:9_st|)) (* 0.0 |v1:8|)) (* 5.0 |v7:2|)) 4.0)))
 (let ((?x177 (- 7.0)))
 (let ((?x463 (* 18.0 |v9:0|)))
 (let (($x672 (<= (+ (+ (* 20.0 (rval2 |v0:9_st|)) (* (- 3.0) (rval2 |v4:5_st|))) ?x463) ?x177)))
 (let (($x1192 (<= (+ (+ (* 2.0 |v7:2|) (* (- 8.0) (rval2 |v8:1_st|))) (* 20.0 ?x769)) 7.0)))
 (let (($x169 (<= (+ (+ (* 3.0 |v1:8|) (* (- 12.0) (rval2 |v8:1_st|))) (* 3.0 |v5:4|)) 12.0)))
 (let (($x297 (<= (+ (+ (* 6.0 (rval2 |v8:1_st|)) (* (- 4.0) ?x769)) (* 0.0 ?x769)) 14.0)))
 (let ((?x548 (rval2 |v0:9_st|)))
 (let ((?x910 (* 7.0 ?x548)))
 (let (($x1152 (or (<= (+ (+ (* (- 4.0) |v1:8|) (* 15.0 ?x769)) ?x1006) 4.0) (<= (+ (+ (* (- 14.0) ?x548) (* ?x680 (rval2 |v2:7_st|))) ?x910) 20.0))))
 (let (($x746 (and (or (or $x1152 (or $x297 $x169)) (and (or $x1192 $x672) (and $x1309 $x422))) $x1390)))
 (let ((?x470 (* 15.0 |v9:0|)))
 (let (($x622 (<= (+ (+ (* (- 17.0) (rval2 |v8:1_st|)) (* (- 12.0) |v5:4|)) ?x470) 5.0)))
 (let (($x1388 (and (<= (+ (+ (* 4.0 |v9:0|) (* 14.0 ?x548)) (* ?x474 ?x769)) 18.0) $x622)))
 (let (($x1415 (<= (+ (+ (* 6.0 ?x769) (* (- 14.0) (rval2 |v4:5_st|))) (* 6.0 |v9:0|)) 1.0)))
 (let ((?x48 (- 5.0)))
 (let (($x1337 (<= (+ (+ (* 11.0 |v9:0|) (* ?x314 ?x769)) (* 5.0 (rval2 |v2:7_st|))) ?x48)))
 (let (($x1248 (<= (+ (+ (* 0.0 (rval2 |v8:1_st|)) (* 3.0 |v1:8|)) (* 17.0 |v7:2|)) 2.0)))
 (let (($x1255 (or $x1248 (<= (+ (+ (* 18.0 |v3:6|) (* 4.0 ?x548)) (* 20.0 |v3:6|)) 20.0))))
 (let (($x1394 (<= (+ (+ (* 0.0 ?x769) (* 8.0 |v5:4|)) (* (- 14.0) (rval2 |v8:1_st|))) 5.0)))
 (let (($x619 (<= (+ (+ (* ?x48 ?x769) (* 3.0 (rval2 |v2:7_st|))) (* 8.0 |v9:0|)) ?x680)))
 (let (($x1319 (<= (+ (+ (* ?x177 |v3:6|) (* 0.0 |v5:4|)) (* ?x359 (rval2 |v4:5_st|))) 20.0)))
 (let (($x351 (<= (+ (+ (* 7.0 ?x769) (* 0.0 |v1:8|)) (* ?x359 (rval2 |v2:7_st|))) 7.0)))
 (let (($x595 (<= (+ (+ (* 4.0 |v5:4|) (* 13.0 ?x769)) (* (- 2.0) |v5:4|)) 18.0)))
 (let ((?x734 (rval2 |v2:7_st|)))
 (let ((?x1326 (* 15.0 ?x734)))
 (let (($x87 (or (or (<= (+ (+ (* ?x680 ?x734) (* 13.0 |v9:0|)) ?x1326) 7.0) $x595) (or $x351 $x1319))))
 (let ((?x410 (* 15.0 |v3:6|)))
 (let (($x350 (<= (+ (+ (* 2.0 (rval2 |v4:5_st|)) (* (- 12.0) (rval2 |v4:5_st|))) ?x410) 3.0)))
 (let (($x887 (or (<= (+ (+ (* ?x359 |v5:4|) (* 10.0 |v3:6|)) ?x463) (- 17.0)) $x350)))
 (let ((?x1018 (- 11.0)))
 (let (($x1384 (<= (+ (+ (* 9.0 |v1:8|) (* 13.0 ?x548)) (* 4.0 (rval2 |v8:1_st|))) ?x1018)))
 (let ((?x251 (- 8.0)))
 (let (($x1148 (<= (+ (+ (* ?x474 |v9:0|) (* 6.0 |v5:4|)) (* (- 6.0) |v7:2|)) ?x251)))
 (let (($x212 (and (or (and (or $x1148 $x1384) $x887) $x87) (or (and (and $x619 $x1394) $x1255) (or (and $x1337 $x1415) $x1388)))))
 (let (($x945 (not (= |v0:9_st| (RMk1 val!1424)))))
 (let (($x729 (not (= |v2:7_st| (RMk1 val!1423)))))
 (let (($x655 (not (= |v4:5_st| (RMk1 val!1422)))))
 (let (($x501 (not (= |v6:3_st| (RMk1 val!1421)))))
 (let (($x699 (not (= |v8:1_st| (RMk1 val!1420)))))
 (and $x699 $x501 $x655 $x729 $x945 (and $x212 $x746))))))))))))))))))))))))))))))))))))))))))))))))))))))))))))))
 )
 )
 )
 )
 )
 )
 )
 )
 )
 )
(check-sat)
